% c1 = 20000000;
% c2 = 20000000;
% c3 = 20000000;
d1 = 1;
d2 = 1;

Nodes = array1d(1..21,[1, 2, 3, 4, 5, 6, 7, 8, 9, 10, 11, 12, 13, 14, 15, 16, 17, 18, 19, 20, 21]);



Link_info = array2d(1..76, 1..4,[
1, 5, 1, 105, 1, 12, 1, 105, 1, 11, 1, 105, 1, 18, 1, 105, 
2, 4, 1, 105, 2, 18, 1, 105, 
3, 13, 1, 105, 3, 20, 1, 105, 3, 6, 1, 105, 3, 12, 1, 105, 3, 10, 1, 105, 
4, 7, 1, 105, 4, 8, 1, 105, 4, 2, 1, 105, 
5, 1, 1, 105, 5, 7, 1, 105, 5, 12, 1, 105, 5, 11, 1, 105, 
6, 3, 1, 105, 6, 14, 1, 105, 
7, 4, 1, 105, 7, 5, 1, 105, 7, 17, 1, 1000, 7, 18, 1, 105, 7, 13, 1, 105, 7, 21, 1, 105, 
8, 4, 1, 105, 8, 15, 1, 105, 
9, 14, 1, 105, 9, 15, 1, 105, 9, 10, 1, 105, 9, 21, 1, 105, 
10, 3, 1, 105, 10, 20, 1, 105, 10, 9, 1, 105, 10, 16, 1, 105, 
11, 5, 1, 105, 11, 1, 1, 105, 11, 20, 1, 105, 11, 12, 1, 105, 
12, 3, 1, 105, 12, 5, 1, 105, 12, 1, 1, 105, 12, 16, 1, 105, 12, 18, 1, 105, 12, 11, 1, 105, 12, 20, 1, 105, 
13, 3, 1, 105, 13, 7, 1, 105, 
14, 9, 1, 105, 14, 20, 1, 105, 14, 6, 1, 105, 14, 21, 1, 105, 
15, 9, 1, 105, 15, 21, 1, 105, 15, 8, 1, 105, 
16, 20, 1, 105, 16, 10, 1, 105, 16, 12, 1, 105, 
17, 7, 1, 1000, 
18, 1, 1, 105, 18, 7, 1, 105, 18, 12, 1, 105, 18, 2, 1, 105, 
19, 20, 1, 1000, 
20, 3, 1, 105, 20, 14, 1, 105, 20, 19, 1, 1000, 20, 10, 1, 105, 20, 16, 1, 105, 20, 12, 1, 105, 20, 11, 1, 105, 
21, 9, 1, 105, 21, 7, 1, 105, 21, 14, 1, 105, 21, 15, 1, 105]);

Flow_demands = [20, 20, 20, 20, 20];
s = [17, 17, 17, 17, 17];
t = [19, 19, 19, 19, 19];
% Limits = [10,10,10,10,10];


%Nodes_Capacities = [40, 40, 40, 40, 40, 40, 200, 40, 40, 40, 40, 40, 40, 40, 40, 40, 100, 40, 100, 200, 40];

